r = [
0,11,11,10,13,9,14,14,9,11,6,0
];
p = [
0,7,8,7,4,13,30,20,26,18,3,0
];
e = [
0,18,5,20,1,5,15,8,15,1,18,0
];
d = [
0,137,134,135,133,136,141,140,136,139,133,144
];
d_bar = [
0,138,135,136,134,137,144,142,139,141,134,144
];
w = [
0,18,5,20,1,5,5,4,5,0.5,18,0
];
